NAME : mtspf.pid5597.gtsp.21474838.tour
COMMENT : Length = 21474838
COMMENT : Found by LKH [Keld Helsgaun] Sun Jan 19 15:36:22 2025
TYPE : TOUR
DIMENSION : 13
TOUR_SECTION
1
3
4
5
2
7
8
9
6
11
12
13
10
-1
EOF
